
Gurobi 11.0.2 (linux64) logging started Tue 03 Dec 2024 09:05:10 AM CET

Set parameter LogFile to value "./res/knapPI_11_50_1000/knapPI_11_50_1000_40/grb_dom.log"
Set parameter Presolve to value 0
Set parameter Aggregate to value 0
Set parameter Heuristics to value 0
Set parameter LPWarmStart to value 0
Set parameter NLPHeur to value 0
Set parameter PreDepRow to value 0
Set parameter PreDual to value 0
Set parameter RINS to value 0
Set parameter Symmetry to value 0
Set parameter NodeLimit to value 1
Set parameter Threads to value 1

Gurobi 11.0.2 (linux64) logging started Tue 03 Dec 2024 09:05:13 AM CET

Set parameter LogFile to value "./res/knapPI_11_50_1000/knapPI_11_50_1000_40/grb_dom.log"
Set parameter NLPHeur to value 0
Set parameter LPWarmStart to value 0
Set parameter PreDepRow to value 0
Set parameter Symmetry to value 0
Set parameter Presolve to value 0
Gurobi Optimizer version 11.0.2 build v11.0.2rc0 (linux64 - "Pop!_OS 20.04 LTS")

CPU model: Intel(R) Core(TM) i7-8650U CPU @ 1.90GHz, instruction set [SSE2|AVX|AVX2]
Thread count: 4 physical cores, 4 logical processors, using up to 1 threads

Optimize a model with 24980 rows, 50 columns and 577864 nonzeros
Model fingerprint: 0x764458e1
Variable types: 0 continuous, 50 integer (50 binary)
Coefficient statistics:
  Matrix range     [1e+00, 1e+03]
  Objective range  [1e+01, 2e+02]
  Bounds range     [0e+00, 0e+00]
  RHS range        [1e+04, 1e+04]
Variable types: 0 continuous, 50 integer (50 binary)

Root relaxation: objective 3.089432e+03, 66 iterations, 0.20 seconds (0.05 work units)

    Nodes    |    Current Node    |     Objective Bounds      |     Work
 Expl Unexpl |  Obj  Depth IntInf | Incumbent    BestBd   Gap | It/Node Time

     0     0 3089.43158    0    1          - 3089.43158      -     -    0s
     0     0 3089.43158    0    1          - 3089.43158      -     -    0s
*    0     0               0    3072.0000000 3072.00000  0.00%     -    1s

Cutting planes:
  Gomory: 1
  StrongCG: 1
  RLT: 1

Explored 1 nodes (69 simplex iterations) in 1.11 seconds (0.58 work units)
Thread count was 1 (of 4 available processors)

Solution count 1: 3072 

Optimal solution found (tolerance 1.00e-04)
Best objective 3.072000000000e+03, best bound 3.072000000000e+03, gap 0.0000%

User-callback calls 324, time in user-callback 0.00 sec
opt = true
obj = 3072.0
nb_dom_cuts = 24979
solved_time = 1.1113
opt_val = 3072.0
